units       metal
atom_style  atomic 

variable    T equal 850    # temperature
variable    kB equal 1.3806504e-23     # [J/K] Boltzmann
variable    eV2J equal 1.6e-19     # eV to Joule
variable    A2m equal 1.0e-10      # Angstrom to meter
variable    ps2s equal 1.0e-12     # picosecond to second
variable    convert equal ${eV2J}*${eV2J}/${ps2s}/${A2m}

# setup problem

read_data   structure.lmp

mass        1 63.546
mass        2 78.96

replicate   3 3 3

pair_style 	mlip mlip.ini 
pair_coeff 	* *

neighbor	0.5 bin
neigh_modify    every 1 delay 5 check yes

variable    dt equal 0.001
timestep    ${dt}

thermo      500

# equilibration and thermalization

velocity    all create $T 456783 mom yes rot yes dist gaussian
fix         NVT_fix all nvt temp $T $T 0.1 drag 0.2

run         2000    # Customize here?

# thermal conductivity calculation

unfix       NVT_fix
fix         NVE all nve

variable    s equal 1       # sampling interval     # Customize here?
variable    p equal 500
variable    d equal $p*$s   # correlation length

variable    w equal 2       # Customize here?
variable    r equal $w*$d   # run

compute     myKE all ke/atom
compute     myPE all pe/atom
compute     myStress all stress/atom NULL virial

compute     flux all heat/flux myKE myPE myStress
variable    Jx equal c_flux[1]/vol
variable    Jy equal c_flux[2]/vol
variable    Jz equal c_flux[3]/vol

fix         JJ all ave/correlate $s $p $d &
            c_flux[1] c_flux[2] c_flux[3] type auto file J0Jt.dat ave running

variable    scale equal ${convert}/${kB}/$T/$T/vol*$s*${dt}
variable    k11 equal trap(f_JJ[3])*${scale}
variable    k22 equal trap(f_JJ[4])*${scale}
variable    k33 equal trap(f_JJ[5])*${scale}

thermo      $d
thermo_style    custom step v_Jx v_Jy v_Jz v_k11 v_k22 v_k33 press vol temp

dump 1 all custom 1000 dump.nb id type x y z fx fy fz

run         $r

variable    k equal (v_k11+v_k22+v_k33)/3.0
print       "average conductivity: $k [W/mK] @ $T [K]"
